%%%%%%%%%%%%%%%%%%%%%%%%%%%%%%%%%%%%%%%%%%%%%%%%%%%%%%%%%%%%%%%%%%%%%%%%%
%FILE DATA:	Soccer Computational Problem for MiniZinc Models
%AUTHORS:	Robinson Duque, Alejandro Arbelaez, Juan Francisco Díaz
%CONTACT:  	robinson.duque@correounivalle.edu.co 
%LAST UPDATE:	May, 2018 
%ROUND ROBIN:2
%TEAMS:20
%PRESENT FIXTURE:30
%FIXTURES TO PLAY:8
%GAMES TO PLAY:80
%%%%%%%%%%%%%%%%%%%%%%%%%%%%%%%%%%%%%%%%%%%%%%%%%%%%%%%%%%%%%%%%%%%%%%%%%
%Number of teams:
n=20;

%For the purpose of our models, we offer two representations of the games to play, namely fixtures and games to play:

%Fixtures to play:
%fixtures=[|0,1,1,0,1,0,0,0,0,0,1,1,0,0,1,0,0,0,1,1
%|1,0,0,1,1,0,0,0,1,0,0,0,1,0,1,0,0,1,1,0
%|1,0,0,0,0,1,1,1,0,0,1,0,0,1,1,0,0,0,1,0
%|0,1,0,0,0,0,1,1,0,1,1,0,0,0,0,1,1,1,0,0
%|1,1,0,0,0,0,0,0,1,1,0,1,0,0,0,0,0,1,1,1
%|0,0,1,0,0,0,1,1,0,0,1,1,1,0,0,1,1,0,0,0
%|0,0,1,1,0,1,0,0,0,0,0,1,1,0,0,1,0,0,1,1
%|0,0,1,1,0,1,0,0,0,1,0,0,0,0,1,1,0,1,0,1
%|0,1,0,0,1,0,0,0,0,1,0,0,0,1,1,1,1,1,0,0
%|0,0,0,1,1,0,0,1,1,0,0,1,1,0,1,0,0,0,1,0
%|1,0,1,1,0,1,0,0,0,0,0,0,1,1,0,1,0,1,0,0
%|1,0,0,0,1,1,1,0,0,1,0,0,1,1,0,1,0,0,0,0
%|0,1,0,0,0,1,1,0,0,1,1,1,0,1,0,0,1,0,0,0
%|0,0,1,0,0,0,0,0,1,0,1,1,1,0,0,0,1,1,0,1
%|1,1,1,0,0,0,0,1,1,1,0,0,0,0,0,1,0,0,0,1
%|0,0,0,1,0,1,1,1,1,0,1,1,0,0,1,0,0,0,0,0
%|0,0,0,1,0,1,0,0,1,0,0,0,1,1,0,0,0,1,1,1
%|0,1,0,1,1,0,0,1,1,0,1,0,0,1,0,0,1,0,0,0
%|1,1,1,0,1,0,1,0,0,1,0,0,0,0,0,0,1,0,0,1
%|1,0,0,0,1,0,1,1,0,0,0,0,0,1,1,0,1,0,1,0|];

%Played Fixtures:
%PlayedFixtures=[|0,1,1,2,1,2,2,2,2,2,1,1,2,2,1,2,2,2,1,1
%|1,0,2,1,1,2,2,2,1,2,2,2,1,2,1,2,2,1,1,2
%|1,2,0,2,2,1,1,1,2,2,1,2,2,1,1,2,2,2,1,2
%|2,1,2,0,2,2,1,1,2,1,1,2,2,2,2,1,1,1,2,2
%|1,1,2,2,0,2,2,2,1,1,2,1,2,2,2,2,2,1,1,1
%|2,2,1,2,2,0,1,1,2,2,1,1,1,2,2,1,1,2,2,2
%|2,2,1,1,2,1,0,2,2,2,2,1,1,2,2,1,2,2,1,1
%|2,2,1,1,2,1,2,0,2,1,2,2,2,2,1,1,2,1,2,1
%|2,1,2,2,1,2,2,2,0,1,2,2,2,1,1,1,1,1,2,2
%|2,2,2,1,1,2,2,1,1,0,2,1,1,2,1,2,2,2,1,2
%|1,2,1,1,2,1,2,2,2,2,0,2,1,1,2,1,2,1,2,2
%|1,2,2,2,1,1,1,2,2,1,2,0,1,1,2,1,2,2,2,2
%|2,1,2,2,2,1,1,2,2,1,1,1,0,1,2,2,1,2,2,2
%|2,2,1,2,2,2,2,2,1,2,1,1,1,0,2,2,1,1,2,1
%|1,1,1,2,2,2,2,1,1,1,2,2,2,2,0,1,2,2,2,1
%|2,2,2,1,2,1,1,1,1,2,1,1,2,2,1,0,2,2,2,2
%|2,2,2,1,2,1,2,2,1,2,2,2,1,1,2,2,0,1,1,1
%|2,1,2,1,1,2,2,1,1,2,1,2,2,1,2,2,1,0,2,2
%|1,1,1,2,1,2,1,2,2,1,2,2,2,2,2,2,1,2,0,1
%|1,2,2,2,1,2,1,1,2,2,2,2,2,1,1,2,1,2,1,0|];

%Games to play:
games=[|2,1|3,1|4,2|5,1|5,2|6,3|7,3|7,4|7,6|8,3|8,4|8,6|9,2|9,5|10,4|10,5|10,8|10,9|11,1|11,3|11,4|11,6|12,1|12,5|12,6|12,7|12,10|13,2|13,6|13,7|13,10|13,11|13,12|14,3|14,9|14,11|14,12|14,13|15,1|15,2|15,3|15,8|15,9|15,10|16,4|16,6|16,7|16,8|16,9|16,11|16,12|16,15|17,4|17,6|17,9|17,13|17,14|18,2|18,4|18,5|18,8|18,9|18,11|18,14|18,17|19,1|19,2|19,3|19,5|19,7|19,10|19,17|20,1|20,5|20,7|20,8|20,14|20,15|20,17|20,19|];

%Played Games:
%PlayedGames=[|2,1|3,1|3,2|3,2|4,1|4,1|4,2|4,3|4,3|5,1|5,2|5,3|5,3|5,4|5,4|6,1|6,1|6,2|6,2|6,3|6,4|6,4|6,5|6,5|7,1|7,1|7,2|7,2|7,3|7,4|7,5|7,5|7,6|8,1|8,1|8,2|8,2|8,3|8,4|8,5|8,5|8,6|8,7|8,7|9,1|9,1|9,2|9,3|9,3|9,4|9,4|9,5|9,6|9,6|9,7|9,7|9,8|9,8|10,1|10,1|10,2|10,2|10,3|10,3|10,4|10,5|10,6|10,6|10,7|10,7|10,8|10,9|11,1|11,2|11,2|11,3|11,4|11,5|11,5|11,6|11,7|11,7|11,8|11,8|11,9|11,9|11,10|11,10|12,1|12,2|12,2|12,3|12,3|12,4|12,4|12,5|12,6|12,7|12,8|12,8|12,9|12,9|12,10|12,11|12,11|13,1|13,1|13,2|13,3|13,3|13,4|13,4|13,5|13,5|13,6|13,7|13,8|13,8|13,9|13,9|13,10|13,11|13,12|14,1|14,1|14,2|14,2|14,3|14,4|14,4|14,5|14,5|14,6|14,6|14,7|14,7|14,8|14,8|14,9|14,10|14,10|14,11|14,12|14,13|15,1|15,2|15,3|15,4|15,4|15,5|15,5|15,6|15,6|15,7|15,7|15,8|15,9|15,10|15,11|15,11|15,12|15,12|15,13|15,13|15,14|15,14|16,1|16,1|16,2|16,2|16,3|16,3|16,4|16,5|16,5|16,6|16,7|16,8|16,9|16,10|16,10|16,11|16,12|16,13|16,13|16,14|16,14|16,15|17,1|17,1|17,2|17,2|17,3|17,3|17,4|17,5|17,5|17,6|17,7|17,7|17,8|17,8|17,9|17,10|17,10|17,11|17,11|17,12|17,12|17,13|17,14|17,15|17,15|17,16|17,16|18,1|18,1|18,2|18,3|18,3|18,4|18,5|18,6|18,6|18,7|18,7|18,8|18,9|18,10|18,10|18,11|18,12|18,12|18,13|18,13|18,14|18,15|18,15|18,16|18,16|18,17|19,1|19,2|19,3|19,4|19,4|19,5|19,6|19,6|19,7|19,8|19,8|19,9|19,9|19,10|19,11|19,11|19,12|19,12|19,13|19,13|19,14|19,14|19,15|19,15|19,16|19,16|19,17|19,18|19,18|20,1|20,2|20,2|20,3|20,3|20,4|20,4|20,5|20,6|20,6|20,7|20,8|20,9|20,9|20,10|20,10|20,11|20,11|20,12|20,12|20,13|20,13|20,14|20,15|20,16|20,16|20,17|20,18|20,18|20,19|];

%Played Games - Win Results:
%% 0  0  0  0  0  2  2  2  0  0  0  0  0  0  0  0  0  0  0  0
%% 0  0  0  0  0  1  0  0  0  0  2  0  0  1  1  2  2  0  0  0
%% 0  0  0  0  0  0  0  0  0  0  0  0  0  0  0  0  0  0  0  0
%% 0  0  0  0  0  0  0  0  0  0  0  0  0  0  0  0  0  0  0  0
%% 1  1  1  2  0  1  2  2  1  0  2  0  0  1  0  0  2  0  0  0
%% 0  0  0  0  0  0  0  1  0  0  0  0  0  0  0  0  0  0  0  0
%% 0  0  1  0  0  0  0  0  0  0  0  0  0  1  0  0  2  0  1  0
%% 0  0  0  1  0  0  0  0  0  0  0  0  0  0  0  0  0  0  0  0
%% 0  0  1  2  0  1  1  1  0  0  2  0  2  1  0  0  0  0  0  0
%% 0  0  2  0  1  1  2  1  1  0  2  1  1  0  0  2  0  0  1  2
%% 1  0  1  0  0  0  0  0  0  0  0  0  0  0  0  0  2  0  0  0
%% 1  0  0  0  0  1  0  0  0  0  0  0  0  0  2  0  0  2  0  0
%% 0  0  1  0  0  0  1  0  0  0  0  1  0  1  2  0  0  2  0  0
%% 0  0  0  0  0  0  0  0  0  0  0  0  0  0  0  0  0  0  0  0
%% 0  0  0  1  0  1  0  1  0  0  0  0  0  0  0  0  2  2  0  0
%% 0  0  1  0  2  1  0  1  0  0  0  1  2  0  0  0  0  0  2  0
%% 0  0  0  0  0  0  0  0  0  0  0  0  0  1  0  0  0  0  0  0
%% 0  0  0  0  0  0  0  0  0  0  0  0  0  0  0  0  0  0  2  0
%% 0  0  0  0  0  0  0  0  0  0  0  1  1  1  1  0  0  0  0  0
%% 1  2  2  2  0  0  0  0  2  0  0  2  0  1  0  0  1  2  0  0
%Played Games - Tie Results:
%% 0  1  1  2  0  0  0  0  2  2  0  0  2  2  1  2  2  2  1  0
%% 1  0  2  1  0  1  2  2  1  2  0  2  1  1  0  0  0  1  1  0
%% 1  2  0  2  1  1  0  1  1  0  0  2  1  1  1  1  2  2  1  0
%% 2  1  2  0  0  2  1  0  0  1  1  2  2  2  1  1  1  1  2  0
%% 0  0  1  0  0  1  0  0  0  0  0  1  2  1  2  0  0  1  1  1
%% 0  1  1  2  1  0  1  0  1  1  1  0  1  2  1  0  1  2  2  2
%% 0  2  0  1  0  1  0  2  1  0  2  1  0  1  2  1  0  2  0  1
%% 0  2  1  0  0  0  2  0  1  0  2  2  2  2  0  0  2  1  2  1
%% 2  1  1  0  0  1  1  1  0  0  0  2  0  0  1  1  1  1  2  0
%% 2  2  0  1  0  1  0  0  0  0  0  0  0  2  1  0  2  2  0  0
%% 0  0  0  1  0  1  2  2  0  0  0  2  1  1  2  1  0  1  2  2
%% 0  2  2  2  1  0  1  2  2  0  2  0  0  1  0  0  2  0  1  0
%% 2  1  1  2  2  1  0  2  0  0  1  0  0  0  0  0  1  0  1  2
%% 2  1  1  2  1  2  1  2  0  2  1  1  0  0  2  2  0  1  1  0
%% 1  0  1  1  2  1  2  0  1  1  2  0  0  2  0  1  0  0  1  1
%% 2  0  1  1  0  0  1  0  1  0  1  0  0  2  1  0  2  2  0  2
%% 2  0  2  1  0  1  0  2  1  2  0  2  1  0  0  2  0  1  1  0
%% 2  1  2  1  1  2  2  1  1  2  1  0  0  1  0  2  1  0  0  0
%% 1  1  1  2  1  2  0  2  2  0  2  1  1  1  1  0  1  0  0  1
%% 0  0  0  0  1  2  1  1  0  0  2  0  2  0  1  2  0  0  1  0
%Played Games - Lose Results:
%% 0  0  0  0  1  0  0  0  0  0  1  1  0  0  0  0  0  0  0  1
%% 0  0  0  0  1  0  0  0  0  0  0  0  0  0  0  0  0  0  0  2
%% 0  0  0  0  1  0  1  0  1  2  1  0  1  0  0  1  0  0  0  2
%% 0  0  0  0  2  0  0  1  2  0  0  0  0  0  1  0  0  0  0  2
%% 0  0  0  0  0  0  0  0  0  1  0  0  0  0  0  2  0  0  0  0
%% 2  1  0  0  1  0  0  0  1  1  0  1  0  0  1  1  0  0  0  0
%% 2  0  0  0  2  0  0  0  1  2  0  0  1  0  0  0  0  0  0  0
%% 2  0  0  0  2  1  0  0  1  1  0  0  0  0  1  1  0  0  0  0
%% 0  0  0  0  1  0  0  0  0  1  0  0  0  0  0  0  0  0  0  2
%% 0  0  0  0  0  0  0  0  0  0  0  0  0  0  0  0  0  0  0  0
%% 0  2  0  0  2  0  0  0  2  2  0  0  0  0  0  0  0  0  0  0
%% 0  0  0  0  0  0  0  0  0  1  0  0  1  0  0  1  0  0  1  2
%% 0  0  0  0  0  0  0  0  2  1  0  0  0  0  0  2  0  0  1  0
%% 0  1  0  0  1  0  1  0  1  0  0  0  1  0  0  0  1  0  1  1
%% 0  1  0  0  0  0  0  0  0  0  0  2  2  0  0  0  0  0  1  0
%% 0  2  0  0  0  0  0  0  0  2  0  0  0  0  0  0  0  0  0  0
%% 0  2  0  0  2  0  2  0  0  0  2  0  0  0  2  0  0  0  0  1
%% 0  0  0  0  0  0  0  0  0  0  0  2  2  0  2  0  0  0  0  2
%% 0  0  0  0  0  0  1  0  0  1  0  0  0  0  0  2  0  2  0  0
%% 0  0  0  0  0  0  0  0  0  2  0  0  0  0  0  0  0  0  0  0

%%Initial points:
iPoints=[38, 45, 20, 22, 59, 23, 32, 23, 48, 64, 30, 36, 40, 22, 38, 46, 21, 26, 32, 58];

%%Initial positions:
%iPositions=[9, 6, 20, 18, 2, 16, 12, 15, 4, 1, 13, 10, 7, 17, 8, 5, 19, 14, 11, 3];

%%Position Constraints:
%numberPositionConstraints=2;

%%Total Fixtures:
%totalFixtures=38;

%%Fixtures to Play:
%fixturesToPlay=8;

%%Position Constraints Built With
%wantedPoints=[0, 0, 1, 3, 1, 0, 3, 1, 1, 1, 3, 3, 3, 0, 0, 0, 3, 3, 0, 1, 0, 1, 0, 1, 3, 0, 3, 3, 0, 3, 0, 3, 1, 1, 1, 1, 0, 1, 1, 1, 1, 3, 0, 3, 3, 0, 1, 1, 3, 3, 1, 0, 3, 1, 3, 3, 1, 1, 1, 1, 0, 3, 3, 1, 1, 1, 3, 0, 0, 0, 0, 0, 1, 1, 0, 3, 0, 1, 0, 1];

%%Probabilities:
probabilities=[|0,83,0,17,|38,30,0,32,|57,34,0,9,|13,41,0,46,|97,3,0,0,|74,21,0,5,|45,39,0,16,|78,16,0,6,|75,15,0,10,|39,35,0,26,|97,1,0,2,|74,0,0,26,|43,36,0,21,|97,3,0,0,|53,29,0,18,|5,46,0,49,|15,65,0,20,|82,5,0,13,|27,7,0,66,|57,17,0,26,|19,26,0,55,|72,6,0,22,|63,29,0,8,|54,29,0,17,|59,39,0,2,|48,32,0,20,|20,73,0,7,|0,24,0,76,|15,84,0,1,|37,45,0,18,|2,13,0,85,|96,4,0,0,|100,0,0,0,|8,84,0,8,|91,4,0,5,|43,25,0,32,|31,47,0,22,|24,45,0,31,|32,61,0,7,|92,4,0,4,|67,18,0,15,|21,59,0,20,|24,26,0,50,|63,34,0,3,|62,1,0,37,|77,7,0,16,|74,25,0,1,|16,53,0,31,|53,26,0,21,|82,10,0,8,|93,6,0,1,|19,38,0,43,|32,59,0,9,|25,49,0,26,|63,22,0,15,|26,13,0,61,|93,4,0,3,|41,41,0,18,|78,15,0,7,|18,26,0,56,|95,1,0,4,|50,4,0,46,|33,11,0,56,|25,63,0,12,|15,72,0,13,|47,0,0,53,|2,23,0,75,|77,7,0,16,|78,15,0,7,|64,4,0,32,|99,1,0,0,|1,60,0,39,|43,8,0,49,|26,24,0,50,|13,62,0,25,|59,16,0,25,|100,0,0,0,|19,59,0,22,|26,12,0,62,|98,1,0,1,|];


%POSITION CONSTRAINTS
%%[|teamID, operator, position|...]
%%operators index:
%%%1 for =  operator
%%%2 for >  operator
%%%3 for >= operator
%%%4 for <  operator
%%%5 for <= operator

positionConstraints=[|9,1,5|8,1,15|];

%SCORE VECTOR CONSTRAINTS
%%[|teamID, operator, wantedPoints|...]
%%operators index:
%%%1 for =  operator
%%%2 for >  operator
%%%3 for >= operator
%%%4 for <  operator
%%%5 for <= operator

%scoreVectorConstraints=[|9,1,55|8,1,34|];

%Instance Features:
%features=T,FP,TF,C,C/T,C/TF,FP/TF,FP/T,FP*C/T,FP*T/C,(C/T)*(FP/TF),Distance,Distance/C,Distance/T,Distance/(C*T)
%values=20,8,38,2,0.1,0.05263157894736842,0.2105263157894737,0.4,0.8,80.0,0.02105263157894737,1,0.5,0.05,0.025



